NAME          DCAP_2_4_3_200_SS48
ROWS
 N  OBJ
 L  CON1
 L  CON2
 L  CON3
 L  CON4
 L  CON5
 L  CON6
 L  CON7
 L  CON8
 L  CON9
 L  CON10
 L  CON11
 L  CON12
 E  CON13
 E  CON14
 E  CON15
 E  CON16
 E  CON17
 E  CON18
 E  CON19
 E  CON20
 E  CON21
 E  CON22
 E  CON23
 E  CON24
COLUMNS
    x[1,1]    OBJ       6.180167      CON1      1.000000    
    x[1,1]    CON7      -1.000000     CON8      -1.000000   
    x[1,1]    CON9      -1.000000   
    x[1,2]    OBJ       6.563535      CON2      1.000000    
    x[1,2]    CON8      -1.000000     CON9      -1.000000   
    x[1,3]    OBJ       7.443064      CON3      1.000000    
    x[1,3]    CON9      -1.000000   
    x[2,1]    OBJ       6.732585      CON4      1.000000    
    x[2,1]    CON10     -1.000000     CON11     -1.000000   
    x[2,1]    CON12     -1.000000   
    x[2,2]    OBJ       5.039546      CON5      1.000000    
    x[2,2]    CON11     -1.000000     CON12     -1.000000   
    x[2,3]    OBJ       6.054841      CON6      1.000000    
    x[2,3]    CON12     -1.000000   
    MARKER    'MARKER'                'INTORG'
    u[1,1]    OBJ       48.076654     CON1      -1.000000   
    u[1,2]    OBJ       20.066487     CON2      -1.000000   
    u[1,3]    OBJ       32.230043     CON3      -1.000000   
    u[2,1]    OBJ       49.996186     CON4      -1.000000   
    u[2,2]    OBJ       49.466655     CON5      -1.000000   
    u[2,3]    OBJ       27.484319     CON6      -1.000000   
    y[1,1,1]  OBJ       5.700062      CON7      0.819144    
    y[1,1,1]  CON13     1.000000    
    y[1,1,2]  OBJ       6.110221      CON8      1.329361    
    y[1,1,2]  CON14     1.000000    
    y[1,1,3]  OBJ       9.891842      CON9      0.829582    
    y[1,1,3]  CON15     1.000000    
    y[1,2,1]  OBJ       9.883161      CON7      1.192141    
    y[1,2,1]  CON16     1.000000    
    y[1,2,2]  OBJ       8.063471      CON8      0.702785    
    y[1,2,2]  CON17     1.000000    
    y[1,2,3]  OBJ       9.040068      CON9      1.040832    
    y[1,2,3]  CON18     1.000000    
    y[1,3,1]  OBJ       9.920990      CON7      0.817661    
    y[1,3,1]  CON19     1.000000    
    y[1,3,2]  OBJ       6.792220      CON8      1.373674    
    y[1,3,2]  CON20     1.000000    
    y[1,3,3]  OBJ       5.569399      CON9      0.812550    
    y[1,3,3]  CON21     1.000000    
    y[1,4,1]  OBJ       6.647313      CON7      0.648760    
    y[1,4,1]  CON22     1.000000    
    y[1,4,2]  OBJ       8.901418      CON8      0.973866    
    y[1,4,2]  CON23     1.000000    
    y[1,4,3]  OBJ       9.964758      CON9      0.771550    
    y[1,4,3]  CON24     1.000000    
    y[2,1,1]  OBJ       5.058275      CON10     0.819144    
    y[2,1,1]  CON13     1.000000    
    y[2,1,2]  OBJ       6.181160      CON11     1.329361    
    y[2,1,2]  CON14     1.000000    
    y[2,1,3]  OBJ       9.060075      CON12     0.829582    
    y[2,1,3]  CON15     1.000000    
    y[2,2,1]  OBJ       6.924459      CON10     1.192141    
    y[2,2,1]  CON16     1.000000    
    y[2,2,2]  OBJ       9.006186      CON11     0.702785    
    y[2,2,2]  CON17     1.000000    
    y[2,2,3]  OBJ       5.280648      CON12     1.040832    
    y[2,2,3]  CON18     1.000000    
    y[2,3,1]  OBJ       6.016808      CON10     0.817661    
    y[2,3,1]  CON19     1.000000    
    y[2,3,2]  OBJ       5.553990      CON11     1.373674    
    y[2,3,2]  CON20     1.000000    
    y[2,3,3]  OBJ       6.821307      CON12     0.812550    
    y[2,3,3]  CON21     1.000000    
    y[2,4,1]  OBJ       7.175209      CON10     0.648760    
    y[2,4,1]  CON22     1.000000    
    y[2,4,2]  OBJ       9.287708      CON11     0.973866    
    y[2,4,2]  CON23     1.000000    
    y[2,4,3]  OBJ       6.078666      CON12     0.771550    
    y[2,4,3]  CON24     1.000000    
    z[1,1]    OBJ       982.561318    CON13     1.000000    
    z[1,2]    OBJ       793.809456    CON14     1.000000    
    z[1,3]    OBJ       768.212697    CON15     1.000000    
    z[2,1]    OBJ       600.531304    CON16     1.000000    
    z[2,2]    OBJ       936.387244    CON17     1.000000    
    z[2,3]    OBJ       600.981778    CON18     1.000000    
    z[3,1]    OBJ       583.243107    CON19     1.000000    
    z[3,2]    OBJ       762.795336    CON20     1.000000    
    z[3,3]    OBJ       972.542994    CON21     1.000000    
    z[4,1]    OBJ       528.335549    CON22     1.000000    
    z[4,2]    OBJ       554.964215    CON23     1.000000    
    z[4,3]    OBJ       620.966319    CON24     1.000000    
    MARKER    'MARKER'                 'INTEND'
RHS
    RHS       CON1      -0.000000     CON2      -0.000000   
    RHS       CON3      -0.000000     CON4      -0.000000   
    RHS       CON5      -0.000000     CON6      -0.000000   
    RHS       CON7      -0.000000     CON8      -0.000000   
    RHS       CON9      -0.000000     CON10     -0.000000   
    RHS       CON11     -0.000000     CON12     -0.000000   
    RHS       CON13     1.000000      CON14     1.000000    
    RHS       CON15     1.000000      CON16     1.000000    
    RHS       CON17     1.000000      CON18     1.000000    
    RHS       CON19     1.000000      CON20     1.000000    
    RHS       CON21     1.000000      CON22     1.000000    
    RHS       CON23     1.000000      CON24     1.000000    
BOUNDS
 BV BOUND     u[1,1]  
 BV BOUND     u[1,2]  
 BV BOUND     u[1,3]  
 BV BOUND     u[2,1]  
 BV BOUND     u[2,2]  
 BV BOUND     u[2,3]  
 BV BOUND     y[1,1,1]
 BV BOUND     y[1,1,2]
 BV BOUND     y[1,1,3]
 BV BOUND     y[1,2,1]
 BV BOUND     y[1,2,2]
 BV BOUND     y[1,2,3]
 BV BOUND     y[1,3,1]
 BV BOUND     y[1,3,2]
 BV BOUND     y[1,3,3]
 BV BOUND     y[1,4,1]
 BV BOUND     y[1,4,2]
 BV BOUND     y[1,4,3]
 BV BOUND     y[2,1,1]
 BV BOUND     y[2,1,2]
 BV BOUND     y[2,1,3]
 BV BOUND     y[2,2,1]
 BV BOUND     y[2,2,2]
 BV BOUND     y[2,2,3]
 BV BOUND     y[2,3,1]
 BV BOUND     y[2,3,2]
 BV BOUND     y[2,3,3]
 BV BOUND     y[2,4,1]
 BV BOUND     y[2,4,2]
 BV BOUND     y[2,4,3]
 BV BOUND     z[1,1]  
 BV BOUND     z[1,2]  
 BV BOUND     z[1,3]  
 BV BOUND     z[2,1]  
 BV BOUND     z[2,2]  
 BV BOUND     z[2,3]  
 BV BOUND     z[3,1]  
 BV BOUND     z[3,2]  
 BV BOUND     z[3,3]  
 BV BOUND     z[4,1]  
 BV BOUND     z[4,2]  
 BV BOUND     z[4,3]  
ENDATA
